c instance by G2
c solution = 10001110100001001
c Known solution cost is 930 
p cnf 17 30
w 34 99 82 40 15 92 71 39 93 44 72 12 47 20 76 41 53
-6 -9 17 0
-8 -9 13 0
3 -2 16 0
-17 15 14 0
10 7 16 0
-3 -2 -8 0
6 -14 -13 0
6 -7 2 0
-4 -8 10 0
-6 3 5 0
10 7 4 0
-11 13 -16 0
13 -15 -14 0
6 15 -9 0
2 -5 -3 0
-13 -1 12 0
-1 -8 12 0
3 13 -11 0
14 -6 4 0
6 10 -11 0
-1 -10 12 0
-17 -12 11 0
-5 -16 13 0
9 15 3 0
-6 -12 -17 0
16 1 12 0
-12 -10 -16 0
-4 13 -9 0
-2 -17 -1 0
-3 -8 -9 0
